NAME : in_house_8_15
TYPE : TSP
DIMENSION : 8
EDGE_WEIGHT_TYPE : EXPLICIT
EDGE_WEIGHT_FORMAT : UPPER_ROW
COMMENT : INVERSION_SHIFT=5
EDGE_WEIGHT_SECTION
23
38
15
61
39
38
46
5
2
21
26
64
18
11
61
21
11
58
31
22
48
38
42
51
42
24
27
14
